p cnf 60 194
1 2 3 0
4 5 6 0
7 8 9 0
10 11 12 0
13 14 15 0
16 17 18 0
19 20 21 0
22 23 24 0
25 26 27 0
28 29 30 0
31 32 33 0
34 35 36 0
37 38 39 0
40 41 42 0
43 44 45 0
46 47 48 0
49 50 51 0
52 53 54 0
55 56 57 0
58 59 60 0
-1 -2 0
-1 -3 0
-2 -3 0
-4 -5 0
-4 -6 0
-5 -6 0
-7 -8 0
-7 -9 0
-8 -9 0
-10 -11 0
-10 -12 0
-11 -12 0
-13 -14 0
-13 -15 0
-14 -15 0
-16 -17 0
-16 -18 0
-17 -18 0
-19 -20 0
-19 -21 0
-20 -21 0
-22 -23 0
-22 -24 0
-23 -24 0
-25 -26 0
-25 -27 0
-26 -27 0
-28 -29 0
-28 -30 0
-29 -30 0
-31 -32 0
-31 -33 0
-32 -33 0
-34 -35 0
-34 -36 0
-35 -36 0
-37 -38 0
-37 -39 0
-38 -39 0
-40 -41 0
-40 -42 0
-41 -42 0
-43 -44 0
-43 -45 0
-44 -45 0
-46 -47 0
-46 -48 0
-47 -48 0
-49 -50 0
-49 -51 0
-50 -51 0
-52 -53 0
-52 -54 0
-53 -54 0
-55 -56 0
-55 -57 0
-56 -57 0
-58 -59 0
-58 -60 0
-59 -60 0
-1 -13 0
-1 -28 0
-4 -31 0
-4 -34 0
-7 -10 0
-7 -46 0
-10 -7 0
-10 -37 0
-13 -1 0
-13 -19 0
-16 -19 0
-16 -28 0
-19 -13 0
-19 -16 0
-22 -19 0
-22 -37 0
-25 -13 0
-25 -37 0
-28 -1 0
-28 -16 0
-31 -4 0
-31 -16 0
-34 -4 0
-34 -46 0
-37 -10 0
-37 -22 0
-40 -46 0
-40 -55 0
-43 -4 0
-43 -22 0
-46 -7 0
-46 -34 0
-49 -1 0
-49 -31 0
-55 -10 0
-55 -28 0
-58 -7 0
-58 -40 0
-2 -14 0
-2 -29 0
-5 -32 0
-5 -35 0
-8 -11 0
-8 -47 0
-11 -8 0
-11 -38 0
-14 -2 0
-14 -20 0
-17 -20 0
-17 -29 0
-20 -14 0
-20 -17 0
-23 -20 0
-23 -38 0
-26 -14 0
-26 -38 0
-29 -2 0
-29 -17 0
-32 -5 0
-32 -17 0
-35 -5 0
-35 -47 0
-38 -11 0
-38 -23 0
-41 -47 0
-41 -56 0
-44 -5 0
-44 -23 0
-47 -8 0
-47 -35 0
-50 -2 0
-50 -32 0
-56 -11 0
-56 -29 0
-59 -8 0
-59 -41 0
-3 -15 0
-3 -30 0
-6 -33 0
-6 -36 0
-9 -12 0
-9 -48 0
-12 -9 0
-12 -39 0
-15 -3 0
-15 -21 0
-18 -21 0
-18 -30 0
-21 -15 0
-21 -18 0
-24 -21 0
-24 -39 0
-27 -15 0
-27 -39 0
-30 -3 0
-30 -18 0
-33 -6 0
-33 -18 0
-36 -6 0
-36 -48 0
-39 -12 0
-39 -24 0
-42 -48 0
-42 -57 0
-45 -6 0
-45 -24 0
-48 -9 0
-48 -36 0
-51 -3 0
-51 -33 0
-57 -12 0
-57 -30 0
-60 -9 0
-60 -42 0
